c *********************************
c * Circuit generated by BenCGen
c *
c * CarryLookaheadBlock_82_82_82_InOutT
c *
c * Ports with 1 gate(s): 2
c * Ports with 2 gate(s): 350
c * Ports with 3 gate(s): 82
c * Ports with 4 gate(s): 60
c * Ports with 5 gate(s): 40
c * Total gates: 534
c *********************************
p cnf 698 2086
1 249 0
-1 -249 0
1 -248 0
249 -248 0
-1 -249 248 0
1 83 -250 0
-1 83 250 0
1 -83 250 0
-1 -83 -250 0
1 -332 0
83 -332 0
-1 -83 332 0
2 84 -251 0
-2 84 251 0
2 -84 251 0
-2 -84 -251 0
2 -333 0
84 -333 0
-2 -84 333 0
3 85 -252 0
-3 85 252 0
3 -85 252 0
-3 -85 -252 0
3 -334 0
85 -334 0
-3 -85 334 0
4 86 -253 0
-4 86 253 0
4 -86 253 0
-4 -86 -253 0
4 -335 0
86 -335 0
-4 -86 335 0
5 87 -254 0
-5 87 254 0
5 -87 254 0
-5 -87 -254 0
5 -336 0
87 -336 0
-5 -87 336 0
6 88 -255 0
-6 88 255 0
6 -88 255 0
-6 -88 -255 0
6 -337 0
88 -337 0
-6 -88 337 0
7 89 -256 0
-7 89 256 0
7 -89 256 0
-7 -89 -256 0
7 -338 0
89 -338 0
-7 -89 338 0
8 90 -257 0
-8 90 257 0
8 -90 257 0
-8 -90 -257 0
8 -339 0
90 -339 0
-8 -90 339 0
9 91 -258 0
-9 91 258 0
9 -91 258 0
-9 -91 -258 0
9 -340 0
91 -340 0
-9 -91 340 0
10 92 -259 0
-10 92 259 0
10 -92 259 0
-10 -92 -259 0
10 -341 0
92 -341 0
-10 -92 341 0
11 93 -260 0
-11 93 260 0
11 -93 260 0
-11 -93 -260 0
11 -342 0
93 -342 0
-11 -93 342 0
12 94 -261 0
-12 94 261 0
12 -94 261 0
-12 -94 -261 0
12 -343 0
94 -343 0
-12 -94 343 0
13 95 -262 0
-13 95 262 0
13 -95 262 0
-13 -95 -262 0
13 -344 0
95 -344 0
-13 -95 344 0
14 96 -263 0
-14 96 263 0
14 -96 263 0
-14 -96 -263 0
14 -345 0
96 -345 0
-14 -96 345 0
15 97 -264 0
-15 97 264 0
15 -97 264 0
-15 -97 -264 0
15 -346 0
97 -346 0
-15 -97 346 0
16 98 -265 0
-16 98 265 0
16 -98 265 0
-16 -98 -265 0
16 -347 0
98 -347 0
-16 -98 347 0
17 99 -266 0
-17 99 266 0
17 -99 266 0
-17 -99 -266 0
17 -348 0
99 -348 0
-17 -99 348 0
18 100 -267 0
-18 100 267 0
18 -100 267 0
-18 -100 -267 0
18 -349 0
100 -349 0
-18 -100 349 0
19 101 -268 0
-19 101 268 0
19 -101 268 0
-19 -101 -268 0
19 -350 0
101 -350 0
-19 -101 350 0
20 102 -269 0
-20 102 269 0
20 -102 269 0
-20 -102 -269 0
20 -351 0
102 -351 0
-20 -102 351 0
21 103 -270 0
-21 103 270 0
21 -103 270 0
-21 -103 -270 0
21 -352 0
103 -352 0
-21 -103 352 0
22 104 -271 0
-22 104 271 0
22 -104 271 0
-22 -104 -271 0
22 -353 0
104 -353 0
-22 -104 353 0
23 105 -272 0
-23 105 272 0
23 -105 272 0
-23 -105 -272 0
23 -354 0
105 -354 0
-23 -105 354 0
24 106 -273 0
-24 106 273 0
24 -106 273 0
-24 -106 -273 0
24 -355 0
106 -355 0
-24 -106 355 0
25 107 -274 0
-25 107 274 0
25 -107 274 0
-25 -107 -274 0
25 -356 0
107 -356 0
-25 -107 356 0
26 108 -275 0
-26 108 275 0
26 -108 275 0
-26 -108 -275 0
26 -357 0
108 -357 0
-26 -108 357 0
27 109 -276 0
-27 109 276 0
27 -109 276 0
-27 -109 -276 0
27 -358 0
109 -358 0
-27 -109 358 0
28 110 -277 0
-28 110 277 0
28 -110 277 0
-28 -110 -277 0
28 -359 0
110 -359 0
-28 -110 359 0
29 111 -278 0
-29 111 278 0
29 -111 278 0
-29 -111 -278 0
29 -360 0
111 -360 0
-29 -111 360 0
30 112 -279 0
-30 112 279 0
30 -112 279 0
-30 -112 -279 0
30 -361 0
112 -361 0
-30 -112 361 0
31 113 -280 0
-31 113 280 0
31 -113 280 0
-31 -113 -280 0
31 -362 0
113 -362 0
-31 -113 362 0
32 114 -281 0
-32 114 281 0
32 -114 281 0
-32 -114 -281 0
32 -363 0
114 -363 0
-32 -114 363 0
33 115 -282 0
-33 115 282 0
33 -115 282 0
-33 -115 -282 0
33 -364 0
115 -364 0
-33 -115 364 0
34 116 -283 0
-34 116 283 0
34 -116 283 0
-34 -116 -283 0
34 -365 0
116 -365 0
-34 -116 365 0
35 117 -284 0
-35 117 284 0
35 -117 284 0
-35 -117 -284 0
35 -366 0
117 -366 0
-35 -117 366 0
36 118 -285 0
-36 118 285 0
36 -118 285 0
-36 -118 -285 0
36 -367 0
118 -367 0
-36 -118 367 0
37 119 -286 0
-37 119 286 0
37 -119 286 0
-37 -119 -286 0
37 -368 0
119 -368 0
-37 -119 368 0
38 120 -287 0
-38 120 287 0
38 -120 287 0
-38 -120 -287 0
38 -369 0
120 -369 0
-38 -120 369 0
39 121 -288 0
-39 121 288 0
39 -121 288 0
-39 -121 -288 0
39 -370 0
121 -370 0
-39 -121 370 0
40 122 -289 0
-40 122 289 0
40 -122 289 0
-40 -122 -289 0
40 -371 0
122 -371 0
-40 -122 371 0
41 123 -290 0
-41 123 290 0
41 -123 290 0
-41 -123 -290 0
41 -372 0
123 -372 0
-41 -123 372 0
42 124 -291 0
-42 124 291 0
42 -124 291 0
-42 -124 -291 0
42 -373 0
124 -373 0
-42 -124 373 0
43 125 -292 0
-43 125 292 0
43 -125 292 0
-43 -125 -292 0
43 -374 0
125 -374 0
-43 -125 374 0
44 126 -293 0
-44 126 293 0
44 -126 293 0
-44 -126 -293 0
44 -375 0
126 -375 0
-44 -126 375 0
45 127 -294 0
-45 127 294 0
45 -127 294 0
-45 -127 -294 0
45 -376 0
127 -376 0
-45 -127 376 0
46 128 -295 0
-46 128 295 0
46 -128 295 0
-46 -128 -295 0
46 -377 0
128 -377 0
-46 -128 377 0
47 129 -296 0
-47 129 296 0
47 -129 296 0
-47 -129 -296 0
47 -378 0
129 -378 0
-47 -129 378 0
48 130 -297 0
-48 130 297 0
48 -130 297 0
-48 -130 -297 0
48 -379 0
130 -379 0
-48 -130 379 0
49 131 -298 0
-49 131 298 0
49 -131 298 0
-49 -131 -298 0
49 -380 0
131 -380 0
-49 -131 380 0
50 132 -299 0
-50 132 299 0
50 -132 299 0
-50 -132 -299 0
50 -381 0
132 -381 0
-50 -132 381 0
51 133 -300 0
-51 133 300 0
51 -133 300 0
-51 -133 -300 0
51 -382 0
133 -382 0
-51 -133 382 0
52 134 -301 0
-52 134 301 0
52 -134 301 0
-52 -134 -301 0
52 -383 0
134 -383 0
-52 -134 383 0
53 135 -302 0
-53 135 302 0
53 -135 302 0
-53 -135 -302 0
53 -384 0
135 -384 0
-53 -135 384 0
54 136 -303 0
-54 136 303 0
54 -136 303 0
-54 -136 -303 0
54 -385 0
136 -385 0
-54 -136 385 0
55 137 -304 0
-55 137 304 0
55 -137 304 0
-55 -137 -304 0
55 -386 0
137 -386 0
-55 -137 386 0
56 138 -305 0
-56 138 305 0
56 -138 305 0
-56 -138 -305 0
56 -387 0
138 -387 0
-56 -138 387 0
57 139 -306 0
-57 139 306 0
57 -139 306 0
-57 -139 -306 0
57 -388 0
139 -388 0
-57 -139 388 0
58 140 -307 0
-58 140 307 0
58 -140 307 0
-58 -140 -307 0
58 -389 0
140 -389 0
-58 -140 389 0
59 141 -308 0
-59 141 308 0
59 -141 308 0
-59 -141 -308 0
59 -390 0
141 -390 0
-59 -141 390 0
60 142 -309 0
-60 142 309 0
60 -142 309 0
-60 -142 -309 0
60 -391 0
142 -391 0
-60 -142 391 0
61 143 -310 0
-61 143 310 0
61 -143 310 0
-61 -143 -310 0
61 -392 0
143 -392 0
-61 -143 392 0
62 144 -311 0
-62 144 311 0
62 -144 311 0
-62 -144 -311 0
62 -393 0
144 -393 0
-62 -144 393 0
63 145 -312 0
-63 145 312 0
63 -145 312 0
-63 -145 -312 0
63 -394 0
145 -394 0
-63 -145 394 0
64 146 -313 0
-64 146 313 0
64 -146 313 0
-64 -146 -313 0
64 -395 0
146 -395 0
-64 -146 395 0
65 147 -314 0
-65 147 314 0
65 -147 314 0
-65 -147 -314 0
65 -396 0
147 -396 0
-65 -147 396 0
66 148 -315 0
-66 148 315 0
66 -148 315 0
-66 -148 -315 0
66 -397 0
148 -397 0
-66 -148 397 0
67 149 -316 0
-67 149 316 0
67 -149 316 0
-67 -149 -316 0
67 -398 0
149 -398 0
-67 -149 398 0
68 150 -317 0
-68 150 317 0
68 -150 317 0
-68 -150 -317 0
68 -399 0
150 -399 0
-68 -150 399 0
69 151 -318 0
-69 151 318 0
69 -151 318 0
-69 -151 -318 0
69 -400 0
151 -400 0
-69 -151 400 0
70 152 -319 0
-70 152 319 0
70 -152 319 0
-70 -152 -319 0
70 -401 0
152 -401 0
-70 -152 401 0
71 153 -320 0
-71 153 320 0
71 -153 320 0
-71 -153 -320 0
71 -402 0
153 -402 0
-71 -153 402 0
72 154 -321 0
-72 154 321 0
72 -154 321 0
-72 -154 -321 0
72 -403 0
154 -403 0
-72 -154 403 0
73 155 -322 0
-73 155 322 0
73 -155 322 0
-73 -155 -322 0
73 -404 0
155 -404 0
-73 -155 404 0
74 156 -323 0
-74 156 323 0
74 -156 323 0
-74 -156 -323 0
74 -405 0
156 -405 0
-74 -156 405 0
75 157 -324 0
-75 157 324 0
75 -157 324 0
-75 -157 -324 0
75 -406 0
157 -406 0
-75 -157 406 0
76 158 -325 0
-76 158 325 0
76 -158 325 0
-76 -158 -325 0
76 -407 0
158 -407 0
-76 -158 407 0
77 159 -326 0
-77 159 326 0
77 -159 326 0
-77 -159 -326 0
77 -408 0
159 -408 0
-77 -159 408 0
78 160 -327 0
-78 160 327 0
78 -160 327 0
-78 -160 -327 0
78 -409 0
160 -409 0
-78 -160 409 0
79 161 -328 0
-79 161 328 0
79 -161 328 0
-79 -161 -328 0
79 -410 0
161 -410 0
-79 -161 410 0
80 162 -329 0
-80 162 329 0
80 -162 329 0
-80 -162 -329 0
80 -411 0
162 -411 0
-80 -162 411 0
81 163 -330 0
-81 163 330 0
81 -163 330 0
-81 -163 -330 0
81 -412 0
163 -412 0
-81 -163 412 0
82 164 -331 0
-82 164 331 0
82 -164 331 0
-82 -164 -331 0
82 -413 0
164 -413 0
-82 -164 413 0
248 -496 0
250 -496 0
-248 -250 496 0
248 -497 0
250 -497 0
251 -497 0
-248 -250 -251 497 0
332 -498 0
251 -498 0
-332 -251 498 0
248 -499 0
250 -499 0
251 -499 0
252 -499 0
-248 -250 -251 -252 499 0
332 -500 0
251 -500 0
252 -500 0
-332 -251 -252 500 0
333 -501 0
252 -501 0
-333 -252 501 0
248 -502 0
250 -502 0
251 -502 0
252 -502 0
253 -502 0
-248 -250 -251 -252 -253 502 0
332 -503 0
251 -503 0
252 -503 0
253 -503 0
-332 -251 -252 -253 503 0
333 -504 0
252 -504 0
253 -504 0
-333 -252 -253 504 0
334 -505 0
253 -505 0
-334 -253 505 0
-332 414 0
-496 414 0
332 496 -414 0
-333 415 0
-497 415 0
-498 415 0
333 497 498 -415 0
-334 416 0
-499 416 0
-500 416 0
-501 416 0
334 499 500 501 -416 0
-335 417 0
-502 417 0
-503 417 0
-504 417 0
-505 417 0
335 502 503 504 505 -417 0
417 -506 0
254 -506 0
-417 -254 506 0
417 -507 0
254 -507 0
255 -507 0
-417 -254 -255 507 0
336 -508 0
255 -508 0
-336 -255 508 0
417 -509 0
254 -509 0
255 -509 0
256 -509 0
-417 -254 -255 -256 509 0
336 -510 0
255 -510 0
256 -510 0
-336 -255 -256 510 0
337 -511 0
256 -511 0
-337 -256 511 0
417 -512 0
254 -512 0
255 -512 0
256 -512 0
257 -512 0
-417 -254 -255 -256 -257 512 0
336 -513 0
255 -513 0
256 -513 0
257 -513 0
-336 -255 -256 -257 513 0
337 -514 0
256 -514 0
257 -514 0
-337 -256 -257 514 0
338 -515 0
257 -515 0
-338 -257 515 0
-336 418 0
-506 418 0
336 506 -418 0
-337 419 0
-507 419 0
-508 419 0
337 507 508 -419 0
-338 420 0
-509 420 0
-510 420 0
-511 420 0
338 509 510 511 -420 0
-339 421 0
-512 421 0
-513 421 0
-514 421 0
-515 421 0
339 512 513 514 515 -421 0
421 -516 0
258 -516 0
-421 -258 516 0
421 -517 0
258 -517 0
259 -517 0
-421 -258 -259 517 0
340 -518 0
259 -518 0
-340 -259 518 0
421 -519 0
258 -519 0
259 -519 0
260 -519 0
-421 -258 -259 -260 519 0
340 -520 0
259 -520 0
260 -520 0
-340 -259 -260 520 0
341 -521 0
260 -521 0
-341 -260 521 0
421 -522 0
258 -522 0
259 -522 0
260 -522 0
261 -522 0
-421 -258 -259 -260 -261 522 0
340 -523 0
259 -523 0
260 -523 0
261 -523 0
-340 -259 -260 -261 523 0
341 -524 0
260 -524 0
261 -524 0
-341 -260 -261 524 0
342 -525 0
261 -525 0
-342 -261 525 0
-340 422 0
-516 422 0
340 516 -422 0
-341 423 0
-517 423 0
-518 423 0
341 517 518 -423 0
-342 424 0
-519 424 0
-520 424 0
-521 424 0
342 519 520 521 -424 0
-343 425 0
-522 425 0
-523 425 0
-524 425 0
-525 425 0
343 522 523 524 525 -425 0
425 -526 0
262 -526 0
-425 -262 526 0
425 -527 0
262 -527 0
263 -527 0
-425 -262 -263 527 0
344 -528 0
263 -528 0
-344 -263 528 0
425 -529 0
262 -529 0
263 -529 0
264 -529 0
-425 -262 -263 -264 529 0
344 -530 0
263 -530 0
264 -530 0
-344 -263 -264 530 0
345 -531 0
264 -531 0
-345 -264 531 0
425 -532 0
262 -532 0
263 -532 0
264 -532 0
265 -532 0
-425 -262 -263 -264 -265 532 0
344 -533 0
263 -533 0
264 -533 0
265 -533 0
-344 -263 -264 -265 533 0
345 -534 0
264 -534 0
265 -534 0
-345 -264 -265 534 0
346 -535 0
265 -535 0
-346 -265 535 0
-344 426 0
-526 426 0
344 526 -426 0
-345 427 0
-527 427 0
-528 427 0
345 527 528 -427 0
-346 428 0
-529 428 0
-530 428 0
-531 428 0
346 529 530 531 -428 0
-347 429 0
-532 429 0
-533 429 0
-534 429 0
-535 429 0
347 532 533 534 535 -429 0
429 -536 0
266 -536 0
-429 -266 536 0
429 -537 0
266 -537 0
267 -537 0
-429 -266 -267 537 0
348 -538 0
267 -538 0
-348 -267 538 0
429 -539 0
266 -539 0
267 -539 0
268 -539 0
-429 -266 -267 -268 539 0
348 -540 0
267 -540 0
268 -540 0
-348 -267 -268 540 0
349 -541 0
268 -541 0
-349 -268 541 0
429 -542 0
266 -542 0
267 -542 0
268 -542 0
269 -542 0
-429 -266 -267 -268 -269 542 0
348 -543 0
267 -543 0
268 -543 0
269 -543 0
-348 -267 -268 -269 543 0
349 -544 0
268 -544 0
269 -544 0
-349 -268 -269 544 0
350 -545 0
269 -545 0
-350 -269 545 0
-348 430 0
-536 430 0
348 536 -430 0
-349 431 0
-537 431 0
-538 431 0
349 537 538 -431 0
-350 432 0
-539 432 0
-540 432 0
-541 432 0
350 539 540 541 -432 0
-351 433 0
-542 433 0
-543 433 0
-544 433 0
-545 433 0
351 542 543 544 545 -433 0
433 -546 0
270 -546 0
-433 -270 546 0
433 -547 0
270 -547 0
271 -547 0
-433 -270 -271 547 0
352 -548 0
271 -548 0
-352 -271 548 0
433 -549 0
270 -549 0
271 -549 0
272 -549 0
-433 -270 -271 -272 549 0
352 -550 0
271 -550 0
272 -550 0
-352 -271 -272 550 0
353 -551 0
272 -551 0
-353 -272 551 0
433 -552 0
270 -552 0
271 -552 0
272 -552 0
273 -552 0
-433 -270 -271 -272 -273 552 0
352 -553 0
271 -553 0
272 -553 0
273 -553 0
-352 -271 -272 -273 553 0
353 -554 0
272 -554 0
273 -554 0
-353 -272 -273 554 0
354 -555 0
273 -555 0
-354 -273 555 0
-352 434 0
-546 434 0
352 546 -434 0
-353 435 0
-547 435 0
-548 435 0
353 547 548 -435 0
-354 436 0
-549 436 0
-550 436 0
-551 436 0
354 549 550 551 -436 0
-355 437 0
-552 437 0
-553 437 0
-554 437 0
-555 437 0
355 552 553 554 555 -437 0
437 -556 0
274 -556 0
-437 -274 556 0
437 -557 0
274 -557 0
275 -557 0
-437 -274 -275 557 0
356 -558 0
275 -558 0
-356 -275 558 0
437 -559 0
274 -559 0
275 -559 0
276 -559 0
-437 -274 -275 -276 559 0
356 -560 0
275 -560 0
276 -560 0
-356 -275 -276 560 0
357 -561 0
276 -561 0
-357 -276 561 0
437 -562 0
274 -562 0
275 -562 0
276 -562 0
277 -562 0
-437 -274 -275 -276 -277 562 0
356 -563 0
275 -563 0
276 -563 0
277 -563 0
-356 -275 -276 -277 563 0
357 -564 0
276 -564 0
277 -564 0
-357 -276 -277 564 0
358 -565 0
277 -565 0
-358 -277 565 0
-356 438 0
-556 438 0
356 556 -438 0
-357 439 0
-557 439 0
-558 439 0
357 557 558 -439 0
-358 440 0
-559 440 0
-560 440 0
-561 440 0
358 559 560 561 -440 0
-359 441 0
-562 441 0
-563 441 0
-564 441 0
-565 441 0
359 562 563 564 565 -441 0
441 -566 0
278 -566 0
-441 -278 566 0
441 -567 0
278 -567 0
279 -567 0
-441 -278 -279 567 0
360 -568 0
279 -568 0
-360 -279 568 0
441 -569 0
278 -569 0
279 -569 0
280 -569 0
-441 -278 -279 -280 569 0
360 -570 0
279 -570 0
280 -570 0
-360 -279 -280 570 0
361 -571 0
280 -571 0
-361 -280 571 0
441 -572 0
278 -572 0
279 -572 0
280 -572 0
281 -572 0
-441 -278 -279 -280 -281 572 0
360 -573 0
279 -573 0
280 -573 0
281 -573 0
-360 -279 -280 -281 573 0
361 -574 0
280 -574 0
281 -574 0
-361 -280 -281 574 0
362 -575 0
281 -575 0
-362 -281 575 0
-360 442 0
-566 442 0
360 566 -442 0
-361 443 0
-567 443 0
-568 443 0
361 567 568 -443 0
-362 444 0
-569 444 0
-570 444 0
-571 444 0
362 569 570 571 -444 0
-363 445 0
-572 445 0
-573 445 0
-574 445 0
-575 445 0
363 572 573 574 575 -445 0
445 -576 0
282 -576 0
-445 -282 576 0
445 -577 0
282 -577 0
283 -577 0
-445 -282 -283 577 0
364 -578 0
283 -578 0
-364 -283 578 0
445 -579 0
282 -579 0
283 -579 0
284 -579 0
-445 -282 -283 -284 579 0
364 -580 0
283 -580 0
284 -580 0
-364 -283 -284 580 0
365 -581 0
284 -581 0
-365 -284 581 0
445 -582 0
282 -582 0
283 -582 0
284 -582 0
285 -582 0
-445 -282 -283 -284 -285 582 0
364 -583 0
283 -583 0
284 -583 0
285 -583 0
-364 -283 -284 -285 583 0
365 -584 0
284 -584 0
285 -584 0
-365 -284 -285 584 0
366 -585 0
285 -585 0
-366 -285 585 0
-364 446 0
-576 446 0
364 576 -446 0
-365 447 0
-577 447 0
-578 447 0
365 577 578 -447 0
-366 448 0
-579 448 0
-580 448 0
-581 448 0
366 579 580 581 -448 0
-367 449 0
-582 449 0
-583 449 0
-584 449 0
-585 449 0
367 582 583 584 585 -449 0
449 -586 0
286 -586 0
-449 -286 586 0
449 -587 0
286 -587 0
287 -587 0
-449 -286 -287 587 0
368 -588 0
287 -588 0
-368 -287 588 0
449 -589 0
286 -589 0
287 -589 0
288 -589 0
-449 -286 -287 -288 589 0
368 -590 0
287 -590 0
288 -590 0
-368 -287 -288 590 0
369 -591 0
288 -591 0
-369 -288 591 0
449 -592 0
286 -592 0
287 -592 0
288 -592 0
289 -592 0
-449 -286 -287 -288 -289 592 0
368 -593 0
287 -593 0
288 -593 0
289 -593 0
-368 -287 -288 -289 593 0
369 -594 0
288 -594 0
289 -594 0
-369 -288 -289 594 0
370 -595 0
289 -595 0
-370 -289 595 0
-368 450 0
-586 450 0
368 586 -450 0
-369 451 0
-587 451 0
-588 451 0
369 587 588 -451 0
-370 452 0
-589 452 0
-590 452 0
-591 452 0
370 589 590 591 -452 0
-371 453 0
-592 453 0
-593 453 0
-594 453 0
-595 453 0
371 592 593 594 595 -453 0
453 -596 0
290 -596 0
-453 -290 596 0
453 -597 0
290 -597 0
291 -597 0
-453 -290 -291 597 0
372 -598 0
291 -598 0
-372 -291 598 0
453 -599 0
290 -599 0
291 -599 0
292 -599 0
-453 -290 -291 -292 599 0
372 -600 0
291 -600 0
292 -600 0
-372 -291 -292 600 0
373 -601 0
292 -601 0
-373 -292 601 0
453 -602 0
290 -602 0
291 -602 0
292 -602 0
293 -602 0
-453 -290 -291 -292 -293 602 0
372 -603 0
291 -603 0
292 -603 0
293 -603 0
-372 -291 -292 -293 603 0
373 -604 0
292 -604 0
293 -604 0
-373 -292 -293 604 0
374 -605 0
293 -605 0
-374 -293 605 0
-372 454 0
-596 454 0
372 596 -454 0
-373 455 0
-597 455 0
-598 455 0
373 597 598 -455 0
-374 456 0
-599 456 0
-600 456 0
-601 456 0
374 599 600 601 -456 0
-375 457 0
-602 457 0
-603 457 0
-604 457 0
-605 457 0
375 602 603 604 605 -457 0
457 -606 0
294 -606 0
-457 -294 606 0
457 -607 0
294 -607 0
295 -607 0
-457 -294 -295 607 0
376 -608 0
295 -608 0
-376 -295 608 0
457 -609 0
294 -609 0
295 -609 0
296 -609 0
-457 -294 -295 -296 609 0
376 -610 0
295 -610 0
296 -610 0
-376 -295 -296 610 0
377 -611 0
296 -611 0
-377 -296 611 0
457 -612 0
294 -612 0
295 -612 0
296 -612 0
297 -612 0
-457 -294 -295 -296 -297 612 0
376 -613 0
295 -613 0
296 -613 0
297 -613 0
-376 -295 -296 -297 613 0
377 -614 0
296 -614 0
297 -614 0
-377 -296 -297 614 0
378 -615 0
297 -615 0
-378 -297 615 0
-376 458 0
-606 458 0
376 606 -458 0
-377 459 0
-607 459 0
-608 459 0
377 607 608 -459 0
-378 460 0
-609 460 0
-610 460 0
-611 460 0
378 609 610 611 -460 0
-379 461 0
-612 461 0
-613 461 0
-614 461 0
-615 461 0
379 612 613 614 615 -461 0
461 -616 0
298 -616 0
-461 -298 616 0
461 -617 0
298 -617 0
299 -617 0
-461 -298 -299 617 0
380 -618 0
299 -618 0
-380 -299 618 0
461 -619 0
298 -619 0
299 -619 0
300 -619 0
-461 -298 -299 -300 619 0
380 -620 0
299 -620 0
300 -620 0
-380 -299 -300 620 0
381 -621 0
300 -621 0
-381 -300 621 0
461 -622 0
298 -622 0
299 -622 0
300 -622 0
301 -622 0
-461 -298 -299 -300 -301 622 0
380 -623 0
299 -623 0
300 -623 0
301 -623 0
-380 -299 -300 -301 623 0
381 -624 0
300 -624 0
301 -624 0
-381 -300 -301 624 0
382 -625 0
301 -625 0
-382 -301 625 0
-380 462 0
-616 462 0
380 616 -462 0
-381 463 0
-617 463 0
-618 463 0
381 617 618 -463 0
-382 464 0
-619 464 0
-620 464 0
-621 464 0
382 619 620 621 -464 0
-383 465 0
-622 465 0
-623 465 0
-624 465 0
-625 465 0
383 622 623 624 625 -465 0
465 -626 0
302 -626 0
-465 -302 626 0
465 -627 0
302 -627 0
303 -627 0
-465 -302 -303 627 0
384 -628 0
303 -628 0
-384 -303 628 0
465 -629 0
302 -629 0
303 -629 0
304 -629 0
-465 -302 -303 -304 629 0
384 -630 0
303 -630 0
304 -630 0
-384 -303 -304 630 0
385 -631 0
304 -631 0
-385 -304 631 0
465 -632 0
302 -632 0
303 -632 0
304 -632 0
305 -632 0
-465 -302 -303 -304 -305 632 0
384 -633 0
303 -633 0
304 -633 0
305 -633 0
-384 -303 -304 -305 633 0
385 -634 0
304 -634 0
305 -634 0
-385 -304 -305 634 0
386 -635 0
305 -635 0
-386 -305 635 0
-384 466 0
-626 466 0
384 626 -466 0
-385 467 0
-627 467 0
-628 467 0
385 627 628 -467 0
-386 468 0
-629 468 0
-630 468 0
-631 468 0
386 629 630 631 -468 0
-387 469 0
-632 469 0
-633 469 0
-634 469 0
-635 469 0
387 632 633 634 635 -469 0
469 -636 0
306 -636 0
-469 -306 636 0
469 -637 0
306 -637 0
307 -637 0
-469 -306 -307 637 0
388 -638 0
307 -638 0
-388 -307 638 0
469 -639 0
306 -639 0
307 -639 0
308 -639 0
-469 -306 -307 -308 639 0
388 -640 0
307 -640 0
308 -640 0
-388 -307 -308 640 0
389 -641 0
308 -641 0
-389 -308 641 0
469 -642 0
306 -642 0
307 -642 0
308 -642 0
309 -642 0
-469 -306 -307 -308 -309 642 0
388 -643 0
307 -643 0
308 -643 0
309 -643 0
-388 -307 -308 -309 643 0
389 -644 0
308 -644 0
309 -644 0
-389 -308 -309 644 0
390 -645 0
309 -645 0
-390 -309 645 0
-388 470 0
-636 470 0
388 636 -470 0
-389 471 0
-637 471 0
-638 471 0
389 637 638 -471 0
-390 472 0
-639 472 0
-640 472 0
-641 472 0
390 639 640 641 -472 0
-391 473 0
-642 473 0
-643 473 0
-644 473 0
-645 473 0
391 642 643 644 645 -473 0
473 -646 0
310 -646 0
-473 -310 646 0
473 -647 0
310 -647 0
311 -647 0
-473 -310 -311 647 0
392 -648 0
311 -648 0
-392 -311 648 0
473 -649 0
310 -649 0
311 -649 0
312 -649 0
-473 -310 -311 -312 649 0
392 -650 0
311 -650 0
312 -650 0
-392 -311 -312 650 0
393 -651 0
312 -651 0
-393 -312 651 0
473 -652 0
310 -652 0
311 -652 0
312 -652 0
313 -652 0
-473 -310 -311 -312 -313 652 0
392 -653 0
311 -653 0
312 -653 0
313 -653 0
-392 -311 -312 -313 653 0
393 -654 0
312 -654 0
313 -654 0
-393 -312 -313 654 0
394 -655 0
313 -655 0
-394 -313 655 0
-392 474 0
-646 474 0
392 646 -474 0
-393 475 0
-647 475 0
-648 475 0
393 647 648 -475 0
-394 476 0
-649 476 0
-650 476 0
-651 476 0
394 649 650 651 -476 0
-395 477 0
-652 477 0
-653 477 0
-654 477 0
-655 477 0
395 652 653 654 655 -477 0
477 -656 0
314 -656 0
-477 -314 656 0
477 -657 0
314 -657 0
315 -657 0
-477 -314 -315 657 0
396 -658 0
315 -658 0
-396 -315 658 0
477 -659 0
314 -659 0
315 -659 0
316 -659 0
-477 -314 -315 -316 659 0
396 -660 0
315 -660 0
316 -660 0
-396 -315 -316 660 0
397 -661 0
316 -661 0
-397 -316 661 0
477 -662 0
314 -662 0
315 -662 0
316 -662 0
317 -662 0
-477 -314 -315 -316 -317 662 0
396 -663 0
315 -663 0
316 -663 0
317 -663 0
-396 -315 -316 -317 663 0
397 -664 0
316 -664 0
317 -664 0
-397 -316 -317 664 0
398 -665 0
317 -665 0
-398 -317 665 0
-396 478 0
-656 478 0
396 656 -478 0
-397 479 0
-657 479 0
-658 479 0
397 657 658 -479 0
-398 480 0
-659 480 0
-660 480 0
-661 480 0
398 659 660 661 -480 0
-399 481 0
-662 481 0
-663 481 0
-664 481 0
-665 481 0
399 662 663 664 665 -481 0
481 -666 0
318 -666 0
-481 -318 666 0
481 -667 0
318 -667 0
319 -667 0
-481 -318 -319 667 0
400 -668 0
319 -668 0
-400 -319 668 0
481 -669 0
318 -669 0
319 -669 0
320 -669 0
-481 -318 -319 -320 669 0
400 -670 0
319 -670 0
320 -670 0
-400 -319 -320 670 0
401 -671 0
320 -671 0
-401 -320 671 0
481 -672 0
318 -672 0
319 -672 0
320 -672 0
321 -672 0
-481 -318 -319 -320 -321 672 0
400 -673 0
319 -673 0
320 -673 0
321 -673 0
-400 -319 -320 -321 673 0
401 -674 0
320 -674 0
321 -674 0
-401 -320 -321 674 0
402 -675 0
321 -675 0
-402 -321 675 0
-400 482 0
-666 482 0
400 666 -482 0
-401 483 0
-667 483 0
-668 483 0
401 667 668 -483 0
-402 484 0
-669 484 0
-670 484 0
-671 484 0
402 669 670 671 -484 0
-403 485 0
-672 485 0
-673 485 0
-674 485 0
-675 485 0
403 672 673 674 675 -485 0
485 -676 0
322 -676 0
-485 -322 676 0
485 -677 0
322 -677 0
323 -677 0
-485 -322 -323 677 0
404 -678 0
323 -678 0
-404 -323 678 0
485 -679 0
322 -679 0
323 -679 0
324 -679 0
-485 -322 -323 -324 679 0
404 -680 0
323 -680 0
324 -680 0
-404 -323 -324 680 0
405 -681 0
324 -681 0
-405 -324 681 0
485 -682 0
322 -682 0
323 -682 0
324 -682 0
325 -682 0
-485 -322 -323 -324 -325 682 0
404 -683 0
323 -683 0
324 -683 0
325 -683 0
-404 -323 -324 -325 683 0
405 -684 0
324 -684 0
325 -684 0
-405 -324 -325 684 0
406 -685 0
325 -685 0
-406 -325 685 0
-404 486 0
-676 486 0
404 676 -486 0
-405 487 0
-677 487 0
-678 487 0
405 677 678 -487 0
-406 488 0
-679 488 0
-680 488 0
-681 488 0
406 679 680 681 -488 0
-407 489 0
-682 489 0
-683 489 0
-684 489 0
-685 489 0
407 682 683 684 685 -489 0
489 -686 0
326 -686 0
-489 -326 686 0
489 -687 0
326 -687 0
327 -687 0
-489 -326 -327 687 0
408 -688 0
327 -688 0
-408 -327 688 0
489 -689 0
326 -689 0
327 -689 0
328 -689 0
-489 -326 -327 -328 689 0
408 -690 0
327 -690 0
328 -690 0
-408 -327 -328 690 0
409 -691 0
328 -691 0
-409 -328 691 0
489 -692 0
326 -692 0
327 -692 0
328 -692 0
329 -692 0
-489 -326 -327 -328 -329 692 0
408 -693 0
327 -693 0
328 -693 0
329 -693 0
-408 -327 -328 -329 693 0
409 -694 0
328 -694 0
329 -694 0
-409 -328 -329 694 0
410 -695 0
329 -695 0
-410 -329 695 0
-408 490 0
-686 490 0
408 686 -490 0
-409 491 0
-687 491 0
-688 491 0
409 687 688 -491 0
-410 492 0
-689 492 0
-690 492 0
-691 492 0
410 689 690 691 -492 0
-411 493 0
-692 493 0
-693 493 0
-694 493 0
-695 493 0
411 692 693 694 695 -493 0
493 -696 0
330 -696 0
-493 -330 696 0
493 -697 0
330 -697 0
331 -697 0
-493 -330 -331 697 0
412 -698 0
331 -698 0
-412 -331 698 0
-412 494 0
-696 494 0
412 696 -494 0
-413 495 0
-697 495 0
-698 495 0
413 697 698 -495 0
250 248 -165 0
-250 248 165 0
250 -248 165 0
-250 -248 -165 0
251 414 -166 0
-251 414 166 0
251 -414 166 0
-251 -414 -166 0
252 415 -167 0
-252 415 167 0
252 -415 167 0
-252 -415 -167 0
253 416 -168 0
-253 416 168 0
253 -416 168 0
-253 -416 -168 0
254 417 -169 0
-254 417 169 0
254 -417 169 0
-254 -417 -169 0
255 418 -170 0
-255 418 170 0
255 -418 170 0
-255 -418 -170 0
256 419 -171 0
-256 419 171 0
256 -419 171 0
-256 -419 -171 0
257 420 -172 0
-257 420 172 0
257 -420 172 0
-257 -420 -172 0
258 421 -173 0
-258 421 173 0
258 -421 173 0
-258 -421 -173 0
259 422 -174 0
-259 422 174 0
259 -422 174 0
-259 -422 -174 0
260 423 -175 0
-260 423 175 0
260 -423 175 0
-260 -423 -175 0
261 424 -176 0
-261 424 176 0
261 -424 176 0
-261 -424 -176 0
262 425 -177 0
-262 425 177 0
262 -425 177 0
-262 -425 -177 0
263 426 -178 0
-263 426 178 0
263 -426 178 0
-263 -426 -178 0
264 427 -179 0
-264 427 179 0
264 -427 179 0
-264 -427 -179 0
265 428 -180 0
-265 428 180 0
265 -428 180 0
-265 -428 -180 0
266 429 -181 0
-266 429 181 0
266 -429 181 0
-266 -429 -181 0
267 430 -182 0
-267 430 182 0
267 -430 182 0
-267 -430 -182 0
268 431 -183 0
-268 431 183 0
268 -431 183 0
-268 -431 -183 0
269 432 -184 0
-269 432 184 0
269 -432 184 0
-269 -432 -184 0
270 433 -185 0
-270 433 185 0
270 -433 185 0
-270 -433 -185 0
271 434 -186 0
-271 434 186 0
271 -434 186 0
-271 -434 -186 0
272 435 -187 0
-272 435 187 0
272 -435 187 0
-272 -435 -187 0
273 436 -188 0
-273 436 188 0
273 -436 188 0
-273 -436 -188 0
274 437 -189 0
-274 437 189 0
274 -437 189 0
-274 -437 -189 0
275 438 -190 0
-275 438 190 0
275 -438 190 0
-275 -438 -190 0
276 439 -191 0
-276 439 191 0
276 -439 191 0
-276 -439 -191 0
277 440 -192 0
-277 440 192 0
277 -440 192 0
-277 -440 -192 0
278 441 -193 0
-278 441 193 0
278 -441 193 0
-278 -441 -193 0
279 442 -194 0
-279 442 194 0
279 -442 194 0
-279 -442 -194 0
280 443 -195 0
-280 443 195 0
280 -443 195 0
-280 -443 -195 0
281 444 -196 0
-281 444 196 0
281 -444 196 0
-281 -444 -196 0
282 445 -197 0
-282 445 197 0
282 -445 197 0
-282 -445 -197 0
283 446 -198 0
-283 446 198 0
283 -446 198 0
-283 -446 -198 0
284 447 -199 0
-284 447 199 0
284 -447 199 0
-284 -447 -199 0
285 448 -200 0
-285 448 200 0
285 -448 200 0
-285 -448 -200 0
286 449 -201 0
-286 449 201 0
286 -449 201 0
-286 -449 -201 0
287 450 -202 0
-287 450 202 0
287 -450 202 0
-287 -450 -202 0
288 451 -203 0
-288 451 203 0
288 -451 203 0
-288 -451 -203 0
289 452 -204 0
-289 452 204 0
289 -452 204 0
-289 -452 -204 0
290 453 -205 0
-290 453 205 0
290 -453 205 0
-290 -453 -205 0
291 454 -206 0
-291 454 206 0
291 -454 206 0
-291 -454 -206 0
292 455 -207 0
-292 455 207 0
292 -455 207 0
-292 -455 -207 0
293 456 -208 0
-293 456 208 0
293 -456 208 0
-293 -456 -208 0
294 457 -209 0
-294 457 209 0
294 -457 209 0
-294 -457 -209 0
295 458 -210 0
-295 458 210 0
295 -458 210 0
-295 -458 -210 0
296 459 -211 0
-296 459 211 0
296 -459 211 0
-296 -459 -211 0
297 460 -212 0
-297 460 212 0
297 -460 212 0
-297 -460 -212 0
298 461 -213 0
-298 461 213 0
298 -461 213 0
-298 -461 -213 0
299 462 -214 0
-299 462 214 0
299 -462 214 0
-299 -462 -214 0
300 463 -215 0
-300 463 215 0
300 -463 215 0
-300 -463 -215 0
301 464 -216 0
-301 464 216 0
301 -464 216 0
-301 -464 -216 0
302 465 -217 0
-302 465 217 0
302 -465 217 0
-302 -465 -217 0
303 466 -218 0
-303 466 218 0
303 -466 218 0
-303 -466 -218 0
304 467 -219 0
-304 467 219 0
304 -467 219 0
-304 -467 -219 0
305 468 -220 0
-305 468 220 0
305 -468 220 0
-305 -468 -220 0
306 469 -221 0
-306 469 221 0
306 -469 221 0
-306 -469 -221 0
307 470 -222 0
-307 470 222 0
307 -470 222 0
-307 -470 -222 0
308 471 -223 0
-308 471 223 0
308 -471 223 0
-308 -471 -223 0
309 472 -224 0
-309 472 224 0
309 -472 224 0
-309 -472 -224 0
310 473 -225 0
-310 473 225 0
310 -473 225 0
-310 -473 -225 0
311 474 -226 0
-311 474 226 0
311 -474 226 0
-311 -474 -226 0
312 475 -227 0
-312 475 227 0
312 -475 227 0
-312 -475 -227 0
313 476 -228 0
-313 476 228 0
313 -476 228 0
-313 -476 -228 0
314 477 -229 0
-314 477 229 0
314 -477 229 0
-314 -477 -229 0
315 478 -230 0
-315 478 230 0
315 -478 230 0
-315 -478 -230 0
316 479 -231 0
-316 479 231 0
316 -479 231 0
-316 -479 -231 0
317 480 -232 0
-317 480 232 0
317 -480 232 0
-317 -480 -232 0
318 481 -233 0
-318 481 233 0
318 -481 233 0
-318 -481 -233 0
319 482 -234 0
-319 482 234 0
319 -482 234 0
-319 -482 -234 0
320 483 -235 0
-320 483 235 0
320 -483 235 0
-320 -483 -235 0
321 484 -236 0
-321 484 236 0
321 -484 236 0
-321 -484 -236 0
322 485 -237 0
-322 485 237 0
322 -485 237 0
-322 -485 -237 0
323 486 -238 0
-323 486 238 0
323 -486 238 0
-323 -486 -238 0
324 487 -239 0
-324 487 239 0
324 -487 239 0
-324 -487 -239 0
325 488 -240 0
-325 488 240 0
325 -488 240 0
-325 -488 -240 0
326 489 -241 0
-326 489 241 0
326 -489 241 0
-326 -489 -241 0
327 490 -242 0
-327 490 242 0
327 -490 242 0
-327 -490 -242 0
328 491 -243 0
-328 491 243 0
328 -491 243 0
-328 -491 -243 0
329 492 -244 0
-329 492 244 0
329 -492 244 0
-329 -492 -244 0
330 493 -245 0
-330 493 245 0
330 -493 245 0
-330 -493 -245 0
331 494 -246 0
-331 494 246 0
331 -494 246 0
-331 -494 -246 0
495 -247 0
-495 247 0
